c n orig vars 33
p cnf 109 363
-34 0
35 -33 0
35 -52 0
-35 33 52 0
-36 -67 0
-36 97 0
-36 35 0
-36 -39 0
-36 64 0
36 67 -97 -35 39 -64 0
37 -21 0
37 -24 0
-37 21 24 0
-38 67 0
-38 97 0
-38 35 0
-38 39 0
-38 64 0
38 -67 -97 -35 -39 -64 0
39 -7 0
39 -63 0
-39 7 63 0
-40 67 0
-40 97 0
-40 -35 0
-40 39 0
-40 -64 0
40 -67 -97 35 -39 64 0
-41 56 0
-41 -51 0
-41 75 0
41 -56 51 -75 0
-42 -67 0
-42 97 0
-42 -35 0
-42 39 0
-42 64 0
42 67 -97 35 -39 -64 0
-43 65 0
-43 76 0
-43 46 0
43 -65 -76 -46 0
-44 74 0
-44 82 0
-44 -81 0
44 -74 -82 81 0
-45 -67 0
-45 -97 0
-45 35 0
-45 39 0
-45 64 0
45 67 97 -35 -39 -64 0
46 -1 0
46 -24 0
-46 1 24 0
-47 67 0
-47 -97 0
-47 35 0
-47 39 0
-47 -64 0
47 -67 97 -35 -39 64 0
48 -10 0
48 -18 0
-48 10 18 0
34 -88 0
34 -83 0
34 -54 0
34 -36 0
34 -95 0
34 -38 0
34 -42 0
34 -90 0
34 -62 0
34 -105 0
34 -85 0
34 -47 0
34 -49 0
34 -40 0
34 -45 0
34 -53 0
-34 88 83 54 36 95 38 42 90 62 105 85 47 49 40 45 53 0
-49 67 0
-49 97 0
-49 -35 0
-49 39 0
-49 64 0
49 -67 -97 35 -39 -64 0
50 -73 0
50 -87 0
50 -4 0
50 -27 0
50 -84 0
50 -43 0
-50 73 87 4 27 84 43 0
51 -10 0
51 -6 0
-51 10 6 0
-52 109 0
-52 89 0
52 -109 -89 0
-53 67 0
-53 97 0
-53 35 0
-53 -39 0
-53 -64 0
53 -67 -97 -35 39 64 0
-54 67 0
-54 97 0
-54 -35 0
-54 -39 0
-54 64 0
54 -67 -97 35 39 -64 0
-55 94 0
-55 -77 0
-55 50 0
55 -94 77 -50 0
56 -17 0
56 -11 0
-56 17 11 0
57 -99 0
57 -55 0
57 -100 0
57 -101 0
57 -26 0
-57 99 55 100 101 26 0
58 -70 0
58 -31 0
-58 70 31 0
-59 109 0
-59 92 0
59 -109 -92 0
-60 -66 0
-60 37 0
-60 48 0
60 66 -37 -48 0
-61 66 0
-61 37 0
-61 48 0
61 -66 -37 -48 0
-62 67 0
-62 -97 0
-62 -35 0
-62 39 0
-62 64 0
62 -67 97 35 -39 -64 0
-63 72 0
-63 109 0
63 -72 -109 0
64 -59 0
64 -13 0
-64 59 13 0
65 -8 0
65 -11 0
-65 8 11 0
66 -11 0
66 -30 0
-66 11 30 0
67 -15 0
67 -108 0
-67 15 108 0
-68 74 0
-68 -82 0
-68 81 0
68 -74 82 -81 0
-69 -56 0
-69 51 0
-69 75 0
69 56 -51 -75 0
70 -106 0
70 -41 0
70 -69 0
70 -104 0
-70 106 41 69 104 0
71 -2 0
71 -86 0
-71 2 86 0
72 -99 0
72 -55 0
72 -100 0
72 -101 0
72 -29 0
-72 99 55 100 101 29 0
-73 65 0
-73 76 0
-73 -46 0
73 -65 -76 46 0
74 -73 0
74 -87 0
74 -27 0
74 -23 0
74 -84 0
74 -43 0
-74 73 87 27 23 84 43 0
75 -24 0
75 -22 0
-75 24 22 0
76 -10 0
76 -5 0
-76 10 5 0
77 -14 0
77 -80 0
77 -2 0
77 -60 0
77 -79 0
77 -61 0
-77 14 80 2 60 79 61 0
78 -107 0
78 -27 0
-78 107 27 0
-79 66 0
-79 37 0
-79 -48 0
79 -66 -37 48 0
-80 66 0
-80 -37 0
-80 48 0
80 -66 37 -48 0
81 -104 0
81 -106 0
81 -31 0
81 -32 0
81 -69 0
81 -41 0
-81 104 106 31 32 69 41 0
82 -9 0
82 -80 0
82 -2 0
82 -60 0
82 -79 0
82 -61 0
-82 9 80 2 60 79 61 0
-83 67 0
-83 97 0
-83 35 0
-83 39 0
-83 -64 0
83 -67 -97 -35 -39 64 0
-84 -65 0
-84 76 0
-84 46 0
84 65 -76 -46 0
-85 -67 0
-85 97 0
-85 35 0
-85 39 0
-85 -64 0
85 67 -97 -35 -39 64 0
86 -79 0
86 -61 0
86 -60 0
86 -80 0
-86 79 61 60 80 0
-87 65 0
-87 -76 0
-87 46 0
87 -65 76 -46 0
-88 -67 0
-88 97 0
-88 35 0
-88 39 0
-88 64 0
88 67 -97 -35 -39 -64 0
89 -99 0
89 -55 0
89 -25 0
89 -100 0
89 -101 0
-89 99 55 25 100 101 0
-90 67 0
-90 97 0
-90 35 0
-90 -39 0
-90 64 0
90 -67 -97 -35 39 -64 0
-91 109 0
-91 57 0
91 -109 -57 0
92 -99 0
92 -55 0
92 -12 0
92 -100 0
92 -101 0
-92 99 55 12 100 101 0
-93 74 0
-93 82 0
-93 81 0
93 -74 -82 -81 0
94 -104 0
94 -106 0
94 -31 0
94 -69 0
94 -28 0
94 -41 0
-94 104 106 31 69 28 41 0
-95 67 0
-95 -97 0
-95 35 0
-95 -39 0
-95 64 0
95 -67 97 -35 39 -64 0
-96 -74 0
-96 82 0
-96 81 0
96 74 -82 -81 0
97 -20 0
97 -91 0
-97 20 91 0
98 -99 0
98 -55 0
98 -100 0
98 -101 0
98 -19 0
-98 99 55 100 101 19 0
-99 94 0
-99 77 0
-99 -50 0
99 -94 -77 50 0
-100 -94 0
-100 77 0
-100 50 0
100 94 -77 -50 0
-101 94 0
-101 77 0
-101 50 0
101 -94 -77 -50 0
102 -68 0
102 -96 0
102 -93 0
102 -44 0
-102 68 96 93 44 0
103 -101 0
103 -99 0
103 -55 0
103 -100 0
-103 101 99 55 100 0
-104 56 0
-104 51 0
-104 75 0
104 -56 -51 -75 0
-105 67 0
-105 -97 0
-105 35 0
-105 39 0
-105 64 0
105 -67 97 -35 -39 -64 0
-106 56 0
-106 51 0
-106 -75 0
106 -56 -51 75 0
107 -43 0
107 -84 0
107 -73 0
107 -87 0
-107 43 84 73 87 0
-108 109 0
-108 98 0
108 -109 -98 0
109 -16 0
109 -44 0
109 -68 0
109 -96 0
109 -93 0
-109 16 44 68 96 93 0
